N = 9;
H = 5;
T = 2;

avail = array3d(1..N, 1..H, 1..T, [9, 7, 1, 1, 10, 10, 7, 0, 5, 3, 0, 3, 9, 4, 10, 3, 3, 5, 7, 9, 3, 5, 7, 0, 2, 7, 6, 8, 10, 9, 0, 3, 2, 2, 4, 2, 6, 9, 5, 0, 10, 7, 4, 9, 3, 6, 1, 3, 6, 4, 8, 8, 5, 10, 9, 7, 6, 1, 3, 6, 9, 2, 2, 7, 0, 7, 2, 10, 10, 2, 9, 7, 7, 0, 7, 9, 5, 0, 1, 4, 3, 3, 8, 2, 2, 5, 1, 6, 6, 1]);

r = array2d(1..H, 1..T, [3, 3, 4, 1, 1, 5, 4, 1, 2, 2]);
